c 1 test4
c 2 test5
c 3 test2
c 4 test3
c 5 Root
c 6 test6
c 7 test1
p cnf 7 23
5 0
5 -7 0
5 -3 0
5 -4 0
5 -1 0
5 -2 0
5 -6 0
7 3 4 1 2 6 -5 0
-7 -3 0
-7 -4 0
-7 -1 0
-7 -2 0
-7 -6 0
-3 -4 0
-3 -1 0
-3 -2 0
-3 -6 0
-4 -1 0
-4 -2 0
-4 -6 0
-1 -2 0
-1 -6 0
-2 -6 0
